%NProcShared=8
%chk=opt_geom.chk
%mem=2000MB
#p opt HF/6-31G(d) nosymm iop(6/7=3) gfinput

Ligand optimization

0 1
S         40.07370       -0.04920       37.13980
C         40.15860        0.82800       35.66500
N         39.46440        1.94450       35.62930
C         38.82090        2.12880       36.83670
C         39.03070        1.15000       37.78940
C         38.47040        1.02050       39.16900
S         36.67060        1.30500       39.17620
C         36.12680       -0.36670       39.16500
N         36.67460       -1.24540       38.24280
C         36.25020       -2.56790       38.20800
O         36.80450       -3.46300       37.29020
N         35.29950       -2.97580       39.05450
C         34.81450       -2.06640       39.90850
S         33.50870       -2.60590       40.97940
C         32.31040       -2.97860       39.67330
C         31.84140       -1.73870       38.95520
C         32.33440       -0.47590       39.30450
C         31.91810        0.66690       38.61420
C         30.98680        0.57600       37.57020
C         30.48690       -0.68950       37.23140
C         30.90610       -1.83250       37.91670
H         30.49870       -2.80040       37.63130
H         29.76630       -0.79790       36.42340
C         30.53770        1.79150       36.77780
C         31.70210        2.66150       36.29680
H         31.32930        3.61320       35.90230
H         32.39040        2.88570       37.11900
H         32.27550        2.17950       35.49780
C         29.65650        1.36680       35.60120
H         29.27950        2.24340       35.06380
H         28.79130        0.79010       35.94740
H         30.20690        0.74440       34.88700
H         29.92860        2.42520       37.43680
H         32.33840        1.62810       38.89970
H         33.05460       -0.37110       40.11300
H         32.76450       -3.67550       38.95890
H         31.43680       -3.48960       40.09640
N         35.18100       -0.78300       40.00700
H         37.38160       -0.91550       37.60090
H         38.94670        1.73160       39.85260
H         38.67350        0.00900       39.54030
H         38.20170        3.00830       36.96930
C         40.96460        0.30400       34.52950
H         40.56400       -0.64450       34.15780
H         40.97530        1.02670       33.70740
H         41.99900        0.13110       34.84410
S         62.25930       15.51220       30.09270
C         61.61930       14.19230       29.19850
N         62.19520       13.02970       29.41430
C         63.20660       13.17870       30.34190
C         63.39510       14.45740       30.83110
C         64.40580       14.97090       31.80510
S         64.34250       16.78830       31.92030
C         65.35460       17.18770       30.53950
N         65.05890       16.62900       29.30540
C         65.85310       16.92120       28.20350
O         65.55610       16.37200       26.95420
N         66.91050       17.72560       28.35000
C         67.13500       18.21840       29.57400
S         68.57810       19.23020       29.76580
C         69.41460       18.68630       28.25410
C         69.75270       17.21740       28.28320
C         70.25850       16.57350       27.14770
C         70.59860       15.21770       27.19020
C         70.42530       14.47000       28.36350
C         69.90750       15.11630       29.49510
C         69.57240       16.47200       29.45540
H         69.17130       16.94490       30.34970
H         69.76420       14.56830       30.42400
C         70.81470       13.00480       28.45470
C         69.66220       12.10150       28.90190
H         70.03350       11.09770       29.13610
H         69.17830       12.49840       29.80090
H         68.89700       11.99330       28.12580
C         71.39640       12.52250       27.12410
H         71.73580       11.48430       27.20380
H         72.25690       13.13320       26.82800
H         70.65780       12.57470       26.31660
H         71.60030       12.90500       29.21600
H         71.00820       14.75660       26.29480
H         70.40030       17.12450       26.22060
H         68.77400       18.90590       27.39170
H         70.34070       19.25600       28.10880
N         66.40970       17.99090       30.67570
H         64.26410       16.01140       29.21690
H         65.41740       14.66680       31.51530
H         64.19550       14.54300       32.79250
H         63.78380       12.30760       30.62940
C         60.49940       14.40990       28.24350
H         60.79780       15.06490       27.41870
H         60.16400       13.45410       27.82890
H         59.64990       14.87690       28.75240





