%NProcShared=8
%chk=opt_geom.chk
%mem=2000MB
#p opt HF/6-31G(d) nosymm iop(6/7=3) gfinput

Ligand optimization

0 1
S         -4.17418       -7.56098        2.40518
C         -3.87550       -6.27467        1.29660
C         -4.74036       -6.32987        0.20169
C         -5.64464       -7.44180        0.31438
C         -5.43981       -8.18835        1.45227
N         -3.85315       -1.49044       -4.10482
F         -5.71565       -5.40275      -12.06980
C         -4.60668       -5.34016       -0.80857
C         -3.62379       -4.33536       -0.72111
C         -2.79194       -4.30573        0.39966
C         -2.90251       -5.26487        1.41298
F         -7.24411       -4.75248      -10.66792
F         -5.95028       -3.28856      -11.62217
C         -3.45990       -3.31517       -1.82885
S         -4.40848       -1.79510       -1.52226
C         -4.10188       -0.91771       -2.98797
N         -4.17835        0.41537       -2.84843
C         -3.98055        1.22153       -3.92256
O         -4.04270        2.43750       -3.78283
N         -3.72100        0.62234       -5.11799
C         -3.67538       -0.66158       -5.17239
S         -3.34956       -1.40397       -6.73402
C         -4.29435       -2.93705       -6.53750
C         -4.17860       -3.85926       -7.72895
C         -3.16675       -4.82865       -7.77769
C         -3.07583       -5.69102       -8.86554
F         -2.11356       -6.62210       -8.88870
C         -3.96819       -5.60770       -9.92677
C         -4.98360       -4.64247       -9.90988
C         -5.08239       -3.77558       -8.80277
C         -5.95862       -4.52618      -11.05596
H         -5.87723       -3.02869       -8.78280
H         -2.03080       -3.53388        0.49780
H         -2.24107       -5.23476        2.27459
H         -6.40549       -7.68410       -0.41719
H         -3.85965       -6.29667      -10.76132
H         -2.44462       -4.92871       -6.97189
H         -5.34816       -2.68824       -6.36808
H         -3.94728       -3.47777       -5.65020
H         -5.97506       -9.07354        1.76938
H         -4.38388        0.84949       -1.96357
H         -3.75882       -3.76996       -2.78018
H         -2.39924       -3.05373       -1.92432
H         -5.27269       -5.37823       -1.66778



